tsp_instances/TSP50/instance64.tsp
NODE_COORD_SECTION
0 164 6
1 163 173
2 127 190
3 18 196
4 174 108
5 50 110
6 144 163
7 147 34
8 160 100
9 65 107
10 126 116
11 167 91
12 8 134
13 47 32
14 11 116
15 41 200
16 161 78
17 136 17
18 43 195
19 152 95
20 15 44
21 2 89
22 106 145
23 55 183
24 19 2
25 142 143
26 175 182
27 132 130
28 69 10
29 168 1
30 44 101
31 78 162
32 154 102
33 11 97
34 25 3
35 144 83
36 58 43
37 84 45
38 156 162
39 102 38
40 109 119
41 50 189
42 92 172
43 154 133
44 131 78
45 153 95
46 108 119
47 14 185
48 195 109
49 98 122
