tsp_instances/TSP50/instance64.opt.tour
TOUR_SECTION
1
8
45
36
17
12
46
20
33
9
5
49
44
26
28
11
41
47
50
23
7
39
2
27
3
43
32
24
42
19
16
4
48
13
15
6
10
31
34
22
21
25
35
29
14
37
38
40
18
30
-1